c instance by G2
c solution = 0010110000111100111000111
c Known solution cost is 1228 
p cnf 25 30
w 33 74 49 18 74 57 21 86 0 6 55 83 5 32 85 15 66 33 30 87 23 70 90 83 53
25 7 -12 0
-19 -16 21 0
-7 21 4 0
9 -2 -17 0
15 24 2 0
7 -5 -10 0
10 8 3 0
-13 22 6 0
-2 -17 11 0
-16 -5 -14 0
7 -25 12 0
-22 8 -11 0
-11 -3 14 0
9 -13 5 0
7 4 -9 0
-12 -10 4 0
11 22 -18 0
20 8 17 0
-14 -12 13 0
-15 7 -24 0
11 7 -22 0
-25 -6 23 0
18 1 -9 0
-21 16 8 0
-8 -13 -17 0
-17 19 -23 0
-14 21 18 0
1 -11 -4 0
-24 -20 -14 0
-13 20 -1 0
